c Output_time 26.03.2020 18:15:20_+0100 1585242920801472213
c ** Program information **
c program_name                          "QBRG_debug"
c version                               "0.3.20"
c date                                  "25.3.2020"
c gid_id                                "673970833836058123f633335630c185360d632e"
c author                                "Oliver Kullmann"
c url                                   "https://github.com/OKullmann/oklibrary/blob/master/Satisfiability/Transformers/Generators/Random/QBRG.cpp"
c ** Machine information **
c machine_name                          "chyna-Lenovo-G50-70"
c bogomips                              3791.08
c ** Compilation information **
c compiler_version                      "g++ 7.5.0"
c compilation_date                      "Mar_26_2020 11:16:30"
c compilation_options                   "--std=c++17 -pedantic -fmax-errors=5 -Wall -Wextra -g -D_GLIBCXX_DEBUG"
c NDEBUG                                0
c OPTIMIZE                              0
c ** Parameters **
c command-line                          "./QBRG_debug" "a40 e40 a40 40" "440*1,1|2-2,1|3-3,1|4-4,1" "" "1,t" ""
c output                                "QuBlRaGe_160_440_1585242920801309263.qdimacs"
c options                               "filtered,renamed"
c num_quantifier_blocks                 4
c  quantifier_blocks                    1:a1-40 2:e41-80 3:a81-120 4:e121-160
c num_clause-blocks                     1
c  clause-blocks                        440 * {1-40,1,1/2} | {41-80,1,1/2} | {81-120,1,1/2} | {121-160,1,1/2}
c num_e-seeds                           37+2=39
c  e-seeds                              1 0 1 0 5 160 2 40 0 40 1 40 0 40 1 440 4 1 1 1 1 2 2 2 1 1 2 3 3 1 1 2 4 4 1 1 2 1 1585242920801308451
p cnf 160 440
a 1 2 3 4 5 6 7 8 9 10 11 12 13 14 15 16 17 18 19 20 21 22 23 24 25 26 27 28 29 30 31 32 33 34 35 36 37 38 39 40 0
e 41 42 43 44 45 46 47 48 49 50 51 52 53 54 55 56 57 58 59 60 61 62 63 64 65 66 67 68 69 70 71 72 73 74 75 76 77 78 79 80 0
a 81 82 83 84 85 86 87 88 89 90 91 92 93 94 95 96 97 98 99 100 101 102 103 104 105 106 107 108 109 110 111 112 113 114 115 116 117 118 119 120 0
e 121 122 123 124 125 126 127 128 129 130 131 132 133 134 135 136 137 138 139 140 141 142 143 144 145 146 147 148 149 150 151 152 153 154 155 156 157 158 159 160 0
-26 -78 -88 -121 0
23 63 93 -121 0
19 70 97 -121 0
27 -42 -98 -121 0
-26 -54 -116 -121 0
-17 -51 81 121 0
35 -49 95 121 0
12 -48 105 121 0
16 77 111 121 0
28 47 -84 -122 0
28 -63 -86 -122 0
-14 -72 -94 -122 0
-2 -62 95 -122 0
-5 -79 -103 -122 0
32 -66 111 -122 0
37 72 115 -122 0
-3 61 -85 122 0
9 58 -86 122 0
15 55 -93 122 0
-1 -75 96 122 0
-17 48 101 122 0
-26 65 -102 122 0
33 58 103 122 0
28 -72 105 122 0
-38 -50 82 -123 0
-33 61 83 -123 0
35 46 -102 -123 0
-21 -51 -103 -123 0
-39 -42 -105 -123 0
-14 53 -106 -123 0
-30 -41 -117 -123 0
1 -74 96 123 0
27 -57 97 123 0
-31 63 -100 123 0
-11 71 -106 123 0
-1 -50 108 123 0
-37 -64 110 123 0
37 80 -114 123 0
-1 -58 -115 123 0
21 60 87 -124 0
31 -65 88 -124 0
-11 79 91 -124 0
39 -68 117 -124 0
-33 -64 89 124 0
-31 54 -91 124 0
-29 72 98 124 0
-28 -63 105 124 0
35 -67 -108 124 0
5 48 -87 -125 0
-10 75 -106 -125 0
34 66 106 -125 0
-36 71 116 -125 0
-4 -76 85 125 0
-2 -63 89 125 0
6 57 -101 125 0
1 72 -107 125 0
32 47 -112 125 0
8 77 -117 125 0
25 42 100 -126 0
-21 -48 -105 -126 0
-5 42 108 -126 0
-12 69 81 126 0
-21 65 94 126 0
-1 45 -95 126 0
-3 -49 -99 126 0
28 67 -102 126 0
17 59 -117 126 0
23 -55 118 126 0
-6 -60 -81 -127 0
-12 73 -84 -127 0
5 -61 -90 -127 0
1 -62 91 -127 0
11 72 -95 -127 0
8 48 102 -127 0
18 42 86 127 0
-4 -72 96 127 0
10 -46 -102 127 0
29 -58 -108 127 0
34 53 -87 -128 0
37 79 -96 -128 0
-11 58 -111 -128 0
-25 42 85 128 0
38 56 87 128 0
-8 -62 98 128 0
-18 67 103 128 0
-30 44 88 -129 0
-24 61 94 -129 0
27 -56 -98 -129 0
25 47 -112 -129 0
23 43 -81 129 0
-2 -49 -82 129 0
-18 78 -84 129 0
-25 75 -85 129 0
22 42 -86 129 0
-21 -47 -88 129 0
40 77 97 129 0
-17 63 102 129 0
-17 -80 -115 129 0
-9 46 -117 129 0
8 75 97 -130 0
1 -61 -98 -130 0
16 77 100 -130 0
25 -49 103 -130 0
-39 70 106 -130 0
-38 -58 110 -130 0
-36 -70 111 -130 0
-32 -51 112 -130 0
16 -42 117 -130 0
30 63 -120 -130 0
34 -45 -95 130 0
-16 -50 97 130 0
37 -55 -104 130 0
-33 65 117 130 0
-3 58 -85 -131 0
-6 64 86 -131 0
18 72 90 -131 0
-26 69 92 -131 0
-29 78 -99 -131 0
7 -65 112 -131 0
21 43 -113 -131 0
-5 45 -117 -131 0
16 42 87 131 0
40 63 89 131 0
-33 44 93 131 0
-15 -71 93 131 0
-26 53 -97 131 0
-2 -52 -106 131 0
18 76 -105 -132 0
32 79 -105 -132 0
-37 55 -109 -132 0
-34 44 -114 -132 0
-10 53 84 132 0
-8 -80 98 132 0
-3 -53 -99 132 0
-24 -80 99 132 0
-21 72 -119 132 0
7 58 92 -133 0
2 41 96 -133 0
-7 -51 102 -133 0
-40 -68 115 -133 0
32 -54 119 -133 0
3 80 -93 133 0
19 -69 101 133 0
10 -55 102 133 0
26 72 104 133 0
3 -59 105 133 0
-8 42 116 133 0
-34 76 -87 -134 0
-18 -73 93 -134 0
-23 64 -96 -134 0
-9 -41 98 -134 0
15 -60 106 -134 0
-29 -66 107 -134 0
-5 42 117 -134 0
-36 66 84 134 0
-1 49 104 134 0
14 -51 110 134 0
3 60 83 -135 0
-7 -41 -86 -135 0
-18 69 -87 -135 0
-5 71 84 135 0
-23 53 86 135 0
-29 -72 89 135 0
6 -72 92 135 0
-4 -49 94 135 0
-29 -74 96 135 0
-18 67 99 135 0
-6 41 -104 135 0
-12 77 108 135 0
-13 41 -89 -136 0
9 -77 96 -136 0
16 70 100 -136 0
38 46 -102 -136 0
-5 -80 104 -136 0
-40 -80 -108 -136 0
-15 -47 109 -136 0
7 72 -117 -136 0
-4 50 81 136 0
37 -78 -85 136 0
-18 60 -89 136 0
28 -62 -88 -137 0
14 -53 96 -137 0
-27 -79 -105 -137 0
3 57 -108 -137 0
37 -63 -114 -137 0
21 79 -120 -137 0
-15 -57 -82 137 0
-33 -57 83 137 0
-33 -71 88 137 0
36 -51 -92 137 0
28 65 95 137 0
-3 -44 105 137 0
-11 -66 107 137 0
-30 58 82 -138 0
34 41 -100 -138 0
-19 -58 100 -138 0
22 -67 82 138 0
-13 -69 -85 138 0
8 -60 -86 138 0
-23 -55 95 138 0
-6 -41 102 138 0
21 53 106 138 0
-13 -63 106 138 0
17 -48 115 138 0
34 -44 -117 138 0
-11 -60 -91 -139 0
16 44 97 -139 0
-32 -75 -98 -139 0
-31 58 -101 -139 0
-17 -53 -103 -139 0
-16 42 -104 -139 0
-5 -62 -104 -139 0
-17 -69 -115 -139 0
-4 -76 115 -139 0
5 -78 88 139 0
5 -60 94 139 0
31 -53 98 139 0
12 -74 -103 139 0
-12 -57 -106 139 0
22 -77 117 139 0
23 -67 81 -140 0
-6 -78 -82 -140 0
30 54 -83 -140 0
-27 -44 84 -140 0
-37 -77 96 -140 0
40 -53 97 -140 0
-3 65 104 -140 0
-6 60 83 140 0
21 44 90 140 0
8 -58 -99 140 0
14 63 -99 140 0
-31 69 110 140 0
37 48 -111 140 0
14 80 114 140 0
-40 68 120 140 0
2 57 -83 -141 0
6 -43 91 -141 0
7 62 -92 -141 0
25 47 92 -141 0
11 44 110 -141 0
32 64 113 -141 0
24 -66 -114 -141 0
-20 79 114 -141 0
-6 76 120 -141 0
27 54 81 141 0
-5 79 83 141 0
-36 46 -85 141 0
-26 66 -91 141 0
15 59 106 141 0
-14 -51 -110 141 0
-7 -77 118 141 0
36 76 -87 -142 0
-40 71 106 -142 0
22 -71 114 -142 0
-13 46 93 142 0
14 41 -97 142 0
-20 -64 102 142 0
26 68 112 142 0
-24 -46 118 142 0
-28 -49 84 -143 0
6 -44 91 -143 0
38 60 95 -143 0
11 68 100 -143 0
-22 71 117 -143 0
-13 -79 81 143 0
-16 59 89 143 0
-19 -47 93 143 0
-15 70 -100 143 0
-40 -67 -102 143 0
-31 -52 116 143 0
-28 -48 118 143 0
8 -73 81 -144 0
1 -47 -82 -144 0
22 74 -83 -144 0
-32 -65 -88 -144 0
-32 78 -95 -144 0
-5 -42 86 144 0
18 -74 -93 144 0
7 -59 95 144 0
-26 49 -100 144 0
-11 56 104 144 0
18 78 87 -145 0
22 43 96 -145 0
-6 55 -98 -145 0
30 56 -98 -145 0
30 51 102 -145 0
39 -51 -119 -145 0
-35 61 91 -146 0
-9 -44 -104 -146 0
-13 49 105 -146 0
-16 44 107 -146 0
-9 -48 -81 146 0
-33 -74 -81 146 0
-18 -54 81 146 0
-10 45 -93 146 0
16 55 -97 146 0
17 -51 -101 146 0
13 -52 105 146 0
-37 -68 -91 -147 0
7 48 -93 -147 0
-20 73 -108 -147 0
-33 -53 -116 -147 0
24 65 93 147 0
-12 49 -98 147 0
29 51 -105 147 0
-15 -47 81 -148 0
-8 77 104 -148 0
-10 -56 -105 -148 0
-3 67 -120 -148 0
3 -80 90 148 0
22 77 -95 148 0
-1 72 -99 148 0
-24 65 101 148 0
15 63 102 148 0
-31 52 -104 148 0
-25 44 109 148 0
-38 -71 91 -149 0
-38 -60 -96 -149 0
-8 -65 97 -149 0
5 60 -99 -149 0
6 -71 -103 -149 0
19 45 -104 -149 0
25 -42 108 -149 0
7 -75 -119 -149 0
-7 44 86 149 0
-34 -72 -99 149 0
-3 41 100 149 0
-6 -58 120 149 0
2 78 -91 -150 0
-23 -71 -82 150 0
37 -61 -87 150 0
13 -70 -87 150 0
-12 -63 -88 150 0
-19 78 -99 150 0
4 -72 100 150 0
4 48 -102 150 0
10 66 112 150 0
-17 -50 -113 150 0
8 64 -114 150 0
30 -52 92 -151 0
10 -43 -95 -151 0
-29 -68 104 -151 0
27 47 105 -151 0
35 65 109 -151 0
-31 71 120 -151 0
-17 58 -86 151 0
20 76 -86 151 0
-26 72 -94 151 0
-10 -73 -99 151 0
-13 68 -100 151 0
21 76 102 151 0
-22 -70 109 151 0
-25 -74 -86 -152 0
-5 -62 90 -152 0
23 49 91 -152 0
15 45 92 -152 0
-18 -71 -101 -152 0
-6 -79 -104 -152 0
-2 52 115 -152 0
-28 -44 -95 152 0
-19 -74 111 152 0
-13 -74 91 -153 0
5 48 -106 -153 0
17 -66 111 -153 0
2 -45 -115 -153 0
13 46 116 -153 0
-11 71 98 153 0
-17 80 -109 153 0
-29 -43 -110 -154 0
-38 -67 113 -154 0
-6 63 83 154 0
-31 -68 -102 154 0
10 72 -102 154 0
-25 74 103 154 0
-26 70 -113 154 0
-29 -52 -115 154 0
11 -51 -116 154 0
-38 -54 -118 154 0
1 -67 -118 154 0
39 -61 -82 -155 0
-7 -52 95 -155 0
22 -55 97 -155 0
29 -63 99 -155 0
-11 51 -100 -155 0
17 50 -110 -155 0
37 -73 -110 -155 0
-30 -71 110 -155 0
-34 65 113 -155 0
-15 73 -117 -155 0
38 48 82 155 0
6 76 94 155 0
28 54 -96 155 0
11 -55 111 155 0
-28 41 -88 -156 0
32 -80 91 -156 0
27 76 106 -156 0
38 -55 119 -156 0
20 80 -85 156 0
39 73 87 156 0
-36 -53 -99 156 0
-20 53 115 156 0
3 -75 84 -157 0
31 -45 -86 -157 0
31 -80 -95 -157 0
-40 -52 100 -157 0
27 48 108 -157 0
-3 73 -119 -157 0
-5 70 82 157 0
4 62 -85 157 0
-19 65 95 157 0
35 48 97 157 0
-18 72 101 157 0
-26 67 -116 157 0
7 -41 -94 -158 0
-9 -52 -99 -158 0
-21 -79 103 -158 0
-40 -68 114 -158 0
-21 49 -85 158 0
10 46 -115 158 0
34 71 81 -159 0
22 -55 -90 -159 0
26 77 -94 -159 0
-37 -47 98 -159 0
8 -74 98 -159 0
25 -52 103 -159 0
-1 -69 111 -159 0
10 70 -81 159 0
-30 60 -82 159 0
19 55 99 159 0
16 -79 110 159 0
-21 76 -120 159 0
1 58 86 -160 0
36 -80 86 -160 0
26 -72 -106 -160 0
31 -68 -107 -160 0
-22 -58 112 -160 0
-18 -46 113 -160 0
17 -50 -106 160 0
-14 -68 117 160 0
2 -77 -118 160 0
